;test regex /FOO\s(.{1,20}@[^\s]+)\s.{0,20}\s{1,2}(<Data>.{0,100}(<Name>(.{0,20})<\/Name>)?.{0,100}<\/Data>)?/m
(declare-const X String)
(assert (str.in_re X (re.++ (str.to_re "/") (re.++ (str.to_re "F") (re.++ (str.to_re "O") (re.++ (str.to_re "O") (re.++ (re.union (str.to_re " ") (re.union (str.to_re "\u{0b}") (re.union (str.to_re "\u{0a}") (re.union (str.to_re "\u{0d}") (re.union (str.to_re "\u{09}") (str.to_re "\u{0c}")))))) (re.++ (re.++ ((_ re.loop 1 20) (re.diff re.allchar (str.to_re "\n"))) (re.++ (str.to_re "@") (re.+ (re.inter (re.diff re.allchar (str.to_re "\u{20}")) (re.inter (re.diff re.allchar (str.to_re "\u{0b}")) (re.inter (re.diff re.allchar (str.to_re "\u{0a}")) (re.inter (re.diff re.allchar (str.to_re "\u{0d}")) (re.inter (re.diff re.allchar (str.to_re "\u{09}")) (re.diff re.allchar (str.to_re "\u{0c}")))))))))) (re.++ (re.union (str.to_re " ") (re.union (str.to_re "\u{0b}") (re.union (str.to_re "\u{0a}") (re.union (str.to_re "\u{0d}") (re.union (str.to_re "\u{09}") (str.to_re "\u{0c}")))))) (re.++ ((_ re.loop 0 20) (re.diff re.allchar (str.to_re "\n"))) (re.++ ((_ re.loop 1 2) (re.union (str.to_re " ") (re.union (str.to_re "\u{0b}") (re.union (str.to_re "\u{0a}") (re.union (str.to_re "\u{0d}") (re.union (str.to_re "\u{09}") (str.to_re "\u{0c}"))))))) (re.++ (re.opt (re.++ (str.to_re "<") (re.++ (str.to_re "D") (re.++ (str.to_re "a") (re.++ (str.to_re "t") (re.++ (str.to_re "a") (re.++ (str.to_re ">") (re.++ ((_ re.loop 0 100) (re.diff re.allchar (str.to_re "\n"))) (re.++ (re.opt (re.++ (str.to_re "<") (re.++ (str.to_re "N") (re.++ (str.to_re "a") (re.++ (str.to_re "m") (re.++ (str.to_re "e") (re.++ (str.to_re ">") (re.++ ((_ re.loop 0 20) (re.diff re.allchar (str.to_re "\n"))) (re.++ (str.to_re "<") (re.++ (str.to_re "/") (re.++ (str.to_re "N") (re.++ (str.to_re "a") (re.++ (str.to_re "m") (re.++ (str.to_re "e") (str.to_re ">"))))))))))))))) (re.++ ((_ re.loop 0 100) (re.diff re.allchar (str.to_re "\n"))) (re.++ (str.to_re "<") (re.++ (str.to_re "/") (re.++ (str.to_re "D") (re.++ (str.to_re "a") (re.++ (str.to_re "t") (re.++ (str.to_re "a") (str.to_re ">"))))))))))))))))) (re.++ (str.to_re "/") (str.to_re "m"))))))))))))))
; sanitize danger characters:  < > ' " &
(assert (not (str.in_re X (re.++ re.all (re.union (str.to_re "\u{3c}") (str.to_re "\u{3e}") (str.to_re "\u{27}") (str.to_re "\u{22}") (str.to_re "\u{26}")) re.all))))
(assert (< 200 (str.len X)))
(check-sat)
(get-model)